#====== Important Variables

variable        runID   string "fjordbond_final_h20_str5e5_lfc30"
variable        dt      equal  0.002
variable        dtsnap  equal  60*60/${dt}
variable        dtthrm  equal  10*60/${dt}
variable        trun    equal  5*24*3600/${dt}
variable	termvel equal  40/(24*3600)
variable        bondupd equal  24*60*60/${dt}
variable	iter	equal  1
variable        bergradius         equal  1e3

#===== Initialization:

units           si
dimension	2
newton		off off
boundary	p p p
processors	4 2 1

#===== Atom definitions:

atom_style	hybrid disk bond/gran/disk
atom_modify	map array
pair_style      gran model hertz/stiffness/disk tangential_damping on
bond_style	gran/disk
special_bonds	lj/coul 0 1 1 extra 40

read_data       ./init/fjordbond_lgberg_mbtr0_dmax10.init
pair_coeff	* *
fix             m1 all property/global youngsModulus peratomtype 9.e9 9.9e3
fix             m2 all property/global poissonsRatio peratomtype 0.33 0.33
fix             m3 all property/global coefficientRestitution peratomtypepair 2 0.9 0.9 0.9 0.9
fix             m4 all property/global coefficientFriction peratomtypepair 2 0.7 0.7 0.7 0.7
fix             m5 all property/global kn peratomtypepair 2 6.7e8 6.7e8 6.7e8 6.7e8
fix             m6 all property/global kt peratomtypepair 2 2.7e8 2.7e8 2.7e8 2.7e8
fix             m7 all property/global gamman peratomtypepair 2 1.0 1.0 1.0 1.0
fix             m8 all property/global gammat peratomtypepair 2 0.5 0.5 0.5 0.5

#===== Bond properties:

variable        E     equal 9.e9 # Young (elastic) modulus
variable        kn2ks equal 1.5  # normal to shear stiffness ratio
variable        sigmacmax equal 2e6
variable        sigmatmax equal 1e6
variable        taumax    equal 500000
bond_coeff      1 1.0 2 0.0 0.01 ${E} ${kn2ks} 1 ${sigmacmax} ${sigmatmax} ${taumax}

#===== General settings:

neighbor	1.0 nsq
neigh_modify	delay 0 page 10000 one 300
timestep	${dt}
communicate	single cutoff 6000.0 vel yes

#===== Forcing-related settings:

fix             1  all nve/disk
fix             f2b all property/global rhoWater scalar 1025.0
fix		ff2 all property/global rhoAir	 scalar 1.27
fix             f3  all enforce2d

#======= define glacier terminus subregion:

variable        yleft        equal bound(all,ymin)
variable        ycleft       equal ${yleft}+10
variable        yright       equal bound(all,ymax)
variable        ycright      equal ${yright}-10
variable        xbot         equal -10100
variable        xtbot        equal -10010+(${termvel}*${trun}*${dt}*(${iter}-1))
variable        xtop         equal bound(all,xmax)
variable        xtermbot     equal ${xtbot}+220
variable        xtermtop     equal ${xtop}-210
group           chanwalls type 2

region          termb block ${xtbot} ${xtermbot} ${ycleft} ${ycright} -100 100 units box
group           term region termb

region          botl block ${xbot} ${xtermbot} ${yleft} ${ycleft} -100 100 units box
region          botr block ${xbot} ${xtermbot} ${ycright} ${yright} -100 100 units box
region          topl block ${xtermtop} ${xtop} ${yleft} ${ycleft} -100 100 units box
region          topr block ${xtermtop} ${xtop} ${ycright} ${yright} -100 100 units box
region          extrabits union 4 botl botr topl topr
group           ebt region extrabits
group           cfrz union chanwalls ebt
group           notmelange union cfrz term
group           melange subtract all notmelange
group           noterm  subtract all term
#===== Output:

compute         2b all stress/atom pair
compute         2a all stress/atom bond
compute         bstr all reduce sum c_2a[1] c_2a[2] c_2a[4]
compute         pstr all reduce sum c_2b[1] c_2b[2] c_2b[4]
compute         kerot all erotate/disk
compute         4a all pair/gran/local id force
compute         4b all property/local batom1 batom2
compute         4d all bond/gran/disk/local length thickness forcen forcet torquetz
compute         5a all pressure thermo_temp pair
compute         5b all pressure thermo_temp bond
fix             fm all ave/atom 1 ${dtsnap} ${dtsnap} vx vy fx fy c_2b[1] c_2b[2] c_2b[4] c_2a[1] c_2a[2] c_2a[4]

thermo          ${dtthrm}
thermo_style    custom time c_5a[1] c_5a[2] c_5a[4] c_5b[1] c_5b[2] c_5b[4] c_bstr[1] c_bstr[2] c_bstr[3] c_pstr[1] c_pstr[2] c_pstr[3]
thermo_style    custom time c_kerot ke pxx pyy pxy lx ly
dump            1 melange custom 20000000 ./res/${runID}.iter${iter}.melange.const id radius mass
dump            2 melange custom ${dtsnap} ./res/${runID}.iter${iter}.melange.* id radius xs ys vx vy omegaz fx fy tqz c_2b[1] c_2b[2] c_2b[4]
dump            4 term custom 20000000 ./res/${runID}.iter${iter}.terminus.const id radius mass
dump            5 term custom ${dtsnap} ./res/${runID}.iter${iter}.terminus.* id radius xs ys vx vy 
dump            6 all local  ${dtsnap} ./res/${runID}.iter${iter}.all.*.pairs c_4a[1] c_4a[2] c_4a[3] c_4a[4] c_4a[5]
dump            7 all local  ${dtsnap} ./res/${runID}.iter${iter}.all.*.bonds c_4b[1] c_4b[2] c_4d[1] c_4d[2] c_4d[3] c_4d[4] c_4d[5]
dump            8 notmelange custom  ${dtsnap} ./res/${runID}.iter${iter}.notmelange.* id radius xs ys vx vy omegaz fx fy tqz c_2b[1] c_2b[2] c_2b[4]
dump          9 all custom ${dtsnap} ./res/${runID}.iter${iter}.all.* id radius xs ys vx vy omegaz fx fy tqz c_2b[1] c_2b[2] c_2b[4]

#===== Run:

#Start with no calving at terminus
fix             frz    cfrz  freeze
fix             ftermove term move linear ${termvel} 0 0 units box

run             ${trun}
